% Logging successfully configured
%%%mzn-stat: initTime=0.094879752
%%%mzn-stat: objective=757
%%%mzn-stat: nodes=941
%%%mzn-stat: restarts=0
%%%mzn-stat: peakDepth=254
%%%mzn-stat: solveTime=0.005246805
%%%mzn-stat: variables=498
%%%mzn-stat: propagators=349
%%%mzn-stat: failures=95
%%%mzn-stat: propagations=5592
%%%mzn-stat: nogoods=95
%%%mzn-stat: numAtomicConstraintsPropagated=0
%%%mzn-stat: allDifferentNumber1TotalHallSetSize=190
%%%mzn-stat: allDifferentNumber1NumberOfConflicts=95
%%%mzn-stat: allDifferentNumber1MaxHallSetSize=2
%%%mzn-stat: allDifferentNumber1PropagationsTotal=1022
%%%mzn-stat: allDifferentNumber1PropagationsThatFoundConflict=95
%%%mzn-stat: circuitNumber2PropagationsThatFoundConflict=0
%%%mzn-stat: circuitNumber2TotalFixedEdgesAtConflict=0
%%%mzn-stat: circuitNumber2NumberOfConflicts=0
%%%mzn-stat: circuitNumber2PropagationsThatPruned=36
%%%mzn-stat: circuitNumber2PropagationsTotal=647
%%%mzn-stat: AverageConflictSize=2
%%%mzn-stat: NumUnitNogoodsLearned=0
%%%mzn-stat: AverageLearnedNogoodLength=2
%%%mzn-stat: AverageBacktrackAmount=0
%%%mzn-stat: AverageLbd=2
%%%mzn-stat: 2AutonomousSearchNumBackupCalled=235
%%%mzn-stat: 2AutonomousSearchNumPredicatesRemoved=0
%%%mzn-stat: 2AutonomousSearchNumCalls=236
%%%mzn-stat: 2AutonomousSearchNumPredicatesAdded=126
%%%mzn-stat: 2AutonomousSearchAverageSizeOfHeap=0.5338983050847458
%%%mzn-stat: 2AutonomousSearchNumAssignedPredicatesEncountered=126
%%%mzn-stat-end
maxleg = 757;
succ = array1d(1..20,[2, 3, 4, 5, 6, 7, 8, 10, 1, 12, 9, 13, 15, 16, 14, 18, 11, 19, 20, 17]);
% time elapsed: 5.19 s
----------
%%%mzn-stat: initTime=0.094879752
%%%mzn-stat: objective=656
%%%mzn-stat: nodes=1203
%%%mzn-stat: restarts=0
%%%mzn-stat: peakDepth=254
%%%mzn-stat: solveTime=0.005712614
%%%mzn-stat: variables=498
%%%mzn-stat: propagators=349
%%%mzn-stat: failures=103
%%%mzn-stat: propagations=6346
%%%mzn-stat: nogoods=103
%%%mzn-stat: numAtomicConstraintsPropagated=0
%%%mzn-stat: allDifferentNumber1TotalHallSetSize=207
%%%mzn-stat: allDifferentNumber1NumberOfConflicts=103
%%%mzn-stat: allDifferentNumber1MaxHallSetSize=3
%%%mzn-stat: allDifferentNumber1PropagationsTotal=1094
%%%mzn-stat: allDifferentNumber1PropagationsThatFoundConflict=103
%%%mzn-stat: circuitNumber2PropagationsThatFoundConflict=0
%%%mzn-stat: circuitNumber2TotalFixedEdgesAtConflict=0
%%%mzn-stat: circuitNumber2NumberOfConflicts=0
%%%mzn-stat: circuitNumber2PropagationsThatPruned=38
%%%mzn-stat: circuitNumber2PropagationsTotal=687
%%%mzn-stat: AverageConflictSize=2.0194174757281553
%%%mzn-stat: NumUnitNogoodsLearned=0
%%%mzn-stat: AverageLearnedNogoodLength=2.029126213592233
%%%mzn-stat: AverageBacktrackAmount=0
%%%mzn-stat: AverageLbd=2.0194174757281553
%%%mzn-stat: 2AutonomousSearchNumBackupCalled=450
%%%mzn-stat: 2AutonomousSearchNumPredicatesRemoved=0
%%%mzn-stat: 2AutonomousSearchNumCalls=452
%%%mzn-stat: 2AutonomousSearchNumPredicatesAdded=149
%%%mzn-stat: 2AutonomousSearchAverageSizeOfHeap=0.5951327433628318
%%%mzn-stat: 2AutonomousSearchNumAssignedPredicatesEncountered=269
%%%mzn-stat-end
maxleg = 656;
succ = array1d(1..20,[2, 3, 4, 5, 6, 7, 8, 10, 1, 12, 9, 13, 15, 17, 16, 14, 18, 19, 20, 11]);
% time elapsed: 5.19 s
----------
%%%mzn-stat: initTime=0.094879752
%%%mzn-stat: objective=596
%%%mzn-stat: nodes=1420
%%%mzn-stat: restarts=0
%%%mzn-stat: peakDepth=254
%%%mzn-stat: solveTime=0.005966729
%%%mzn-stat: variables=498
%%%mzn-stat: propagators=349
%%%mzn-stat: failures=103
%%%mzn-stat: propagations=6928
%%%mzn-stat: nogoods=103
%%%mzn-stat: numAtomicConstraintsPropagated=0
%%%mzn-stat: allDifferentNumber1TotalHallSetSize=207
%%%mzn-stat: allDifferentNumber1NumberOfConflicts=103
%%%mzn-stat: allDifferentNumber1MaxHallSetSize=3
%%%mzn-stat: allDifferentNumber1PropagationsTotal=1122
%%%mzn-stat: allDifferentNumber1PropagationsThatFoundConflict=103
%%%mzn-stat: circuitNumber2PropagationsThatFoundConflict=0
%%%mzn-stat: circuitNumber2TotalFixedEdgesAtConflict=0
%%%mzn-stat: circuitNumber2NumberOfConflicts=0
%%%mzn-stat: circuitNumber2PropagationsThatPruned=39
%%%mzn-stat: circuitNumber2PropagationsTotal=706
%%%mzn-stat: AverageConflictSize=2.0194174757281553
%%%mzn-stat: NumUnitNogoodsLearned=0
%%%mzn-stat: AverageLearnedNogoodLength=2.029126213592233
%%%mzn-stat: AverageBacktrackAmount=0
%%%mzn-stat: AverageLbd=2.0194174757281553
%%%mzn-stat: 2AutonomousSearchNumBackupCalled=648
%%%mzn-stat: 2AutonomousSearchNumPredicatesRemoved=0
%%%mzn-stat: 2AutonomousSearchNumCalls=651
%%%mzn-stat: 2AutonomousSearchNumPredicatesAdded=149
%%%mzn-stat: 2AutonomousSearchAverageSizeOfHeap=0.6328725038402457
%%%mzn-stat: 2AutonomousSearchNumAssignedPredicatesEncountered=412
%%%mzn-stat-end
maxleg = 596;
succ = array1d(1..20,[2, 3, 4, 5, 6, 7, 8, 10, 1, 12, 9, 13, 15, 17, 16, 18, 11, 19, 20, 14]);
% time elapsed: 5.19 s
----------
%%%mzn-stat: initTime=0.094879752
%%%mzn-stat: objective=547
%%%mzn-stat: nodes=1657
%%%mzn-stat: restarts=0
%%%mzn-stat: peakDepth=254
%%%mzn-stat: solveTime=0.00663158
%%%mzn-stat: variables=498
%%%mzn-stat: propagators=349
%%%mzn-stat: failures=118
%%%mzn-stat: propagations=7967
%%%mzn-stat: nogoods=118
%%%mzn-stat: numAtomicConstraintsPropagated=0
%%%mzn-stat: allDifferentNumber1TotalHallSetSize=253
%%%mzn-stat: allDifferentNumber1NumberOfConflicts=118
%%%mzn-stat: allDifferentNumber1MaxHallSetSize=9
%%%mzn-stat: allDifferentNumber1PropagationsTotal=1223
%%%mzn-stat: allDifferentNumber1PropagationsThatFoundConflict=118
%%%mzn-stat: circuitNumber2PropagationsThatFoundConflict=0
%%%mzn-stat: circuitNumber2TotalFixedEdgesAtConflict=0
%%%mzn-stat: circuitNumber2NumberOfConflicts=0
%%%mzn-stat: circuitNumber2PropagationsThatPruned=39
%%%mzn-stat: circuitNumber2PropagationsTotal=758
%%%mzn-stat: AverageConflictSize=2.2288135593220337
%%%mzn-stat: NumUnitNogoodsLearned=0
%%%mzn-stat: AverageLearnedNogoodLength=2.330508474576271
%%%mzn-stat: AverageBacktrackAmount=0
%%%mzn-stat: AverageLbd=2.2203389830508473
%%%mzn-stat: 2AutonomousSearchNumBackupCalled=822
%%%mzn-stat: 2AutonomousSearchNumPredicatesRemoved=0
%%%mzn-stat: 2AutonomousSearchNumCalls=826
%%%mzn-stat: 2AutonomousSearchNumPredicatesAdded=211
%%%mzn-stat: 2AutonomousSearchAverageSizeOfHeap=0.7130750605326877
%%%mzn-stat: 2AutonomousSearchNumAssignedPredicatesEncountered=589
%%%mzn-stat-end
maxleg = 547;
succ = array1d(1..20,[2, 3, 4, 5, 6, 7, 8, 10, 1, 13, 9, 14, 15, 17, 16, 12, 18, 20, 11, 19]);
% time elapsed: 5.19 s
----------
%%%mzn-stat: initTime=0.094879752
%%%mzn-stat: objective=544
%%%mzn-stat: nodes=2127
%%%mzn-stat: restarts=0
%%%mzn-stat: peakDepth=254
%%%mzn-stat: solveTime=0.008862218
%%%mzn-stat: variables=498
%%%mzn-stat: propagators=349
%%%mzn-stat: failures=155
%%%mzn-stat: propagations=11149
%%%mzn-stat: nogoods=155
%%%mzn-stat: numAtomicConstraintsPropagated=0
%%%mzn-stat: allDifferentNumber1TotalHallSetSize=337
%%%mzn-stat: allDifferentNumber1NumberOfConflicts=155
%%%mzn-stat: allDifferentNumber1MaxHallSetSize=12
%%%mzn-stat: allDifferentNumber1PropagationsTotal=1679
%%%mzn-stat: allDifferentNumber1PropagationsThatFoundConflict=155
%%%mzn-stat: circuitNumber2PropagationsThatFoundConflict=0
%%%mzn-stat: circuitNumber2TotalFixedEdgesAtConflict=0
%%%mzn-stat: circuitNumber2NumberOfConflicts=0
%%%mzn-stat: circuitNumber2PropagationsThatPruned=44
%%%mzn-stat: circuitNumber2PropagationsTotal=1019
%%%mzn-stat: AverageConflictSize=2.2774193548387096
%%%mzn-stat: NumUnitNogoodsLearned=0
%%%mzn-stat: AverageLearnedNogoodLength=2.367741935483871
%%%mzn-stat: AverageBacktrackAmount=0
%%%mzn-stat: AverageLbd=2.270967741935484
%%%mzn-stat: 2AutonomousSearchNumBackupCalled=999
%%%mzn-stat: 2AutonomousSearchNumPredicatesRemoved=0
%%%mzn-stat: 2AutonomousSearchNumCalls=1004
%%%mzn-stat: 2AutonomousSearchNumPredicatesAdded=278
%%%mzn-stat: 2AutonomousSearchAverageSizeOfHeap=0.7758964143426295
%%%mzn-stat: 2AutonomousSearchNumAssignedPredicatesEncountered=779
%%%mzn-stat-end
maxleg = 544;
succ = array1d(1..20,[2, 3, 5, 1, 6, 7, 8, 10, 11, 9, 17, 4, 12, 18, 13, 15, 19, 16, 20, 14]);
% time elapsed: 5.19 s
----------
%%%mzn-stat: initTime=0.094879752
%%%mzn-stat: objective=536
%%%mzn-stat: nodes=2330
%%%mzn-stat: restarts=0
%%%mzn-stat: peakDepth=254
%%%mzn-stat: solveTime=0.009266085
%%%mzn-stat: variables=498
%%%mzn-stat: propagators=349
%%%mzn-stat: failures=159
%%%mzn-stat: propagations=11960
%%%mzn-stat: nogoods=159
%%%mzn-stat: numAtomicConstraintsPropagated=0
%%%mzn-stat: allDifferentNumber1TotalHallSetSize=348
%%%mzn-stat: allDifferentNumber1NumberOfConflicts=159
%%%mzn-stat: allDifferentNumber1MaxHallSetSize=12
%%%mzn-stat: allDifferentNumber1PropagationsTotal=1738
%%%mzn-stat: allDifferentNumber1PropagationsThatFoundConflict=159
%%%mzn-stat: circuitNumber2PropagationsThatFoundConflict=0
%%%mzn-stat: circuitNumber2TotalFixedEdgesAtConflict=0
%%%mzn-stat: circuitNumber2NumberOfConflicts=0
%%%mzn-stat: circuitNumber2PropagationsThatPruned=44
%%%mzn-stat: circuitNumber2PropagationsTotal=1053
%%%mzn-stat: AverageConflictSize=2.2955974842767297
%%%mzn-stat: NumUnitNogoodsLearned=0
%%%mzn-stat: AverageLearnedNogoodLength=2.3836477987421385
%%%mzn-stat: AverageBacktrackAmount=0
%%%mzn-stat: AverageLbd=2.289308176100629
%%%mzn-stat: 2AutonomousSearchNumBackupCalled=1163
%%%mzn-stat: 2AutonomousSearchNumPredicatesRemoved=0
%%%mzn-stat: 2AutonomousSearchNumCalls=1169
%%%mzn-stat: 2AutonomousSearchNumPredicatesAdded=289
%%%mzn-stat: 2AutonomousSearchAverageSizeOfHeap=0.8314798973481609
%%%mzn-stat: 2AutonomousSearchNumAssignedPredicatesEncountered=972
%%%mzn-stat-end
maxleg = 536;
succ = array1d(1..20,[2, 3, 5, 1, 6, 7, 8, 10, 19, 9, 17, 4, 12, 18, 13, 15, 20, 16, 11, 14]);
% time elapsed: 5.19 s
----------
%%%mzn-stat: initTime=0.094879752
%%%mzn-stat: objective=532
%%%mzn-stat: nodes=2701
%%%mzn-stat: restarts=0
%%%mzn-stat: peakDepth=254
%%%mzn-stat: solveTime=0.011147764
%%%mzn-stat: variables=498
%%%mzn-stat: propagators=349
%%%mzn-stat: failures=181
%%%mzn-stat: propagations=14803
%%%mzn-stat: nogoods=181
%%%mzn-stat: numAtomicConstraintsPropagated=0
%%%mzn-stat: allDifferentNumber1TotalHallSetSize=392
%%%mzn-stat: allDifferentNumber1NumberOfConflicts=181
%%%mzn-stat: allDifferentNumber1MaxHallSetSize=12
%%%mzn-stat: allDifferentNumber1PropagationsTotal=2109
%%%mzn-stat: allDifferentNumber1PropagationsThatFoundConflict=181
%%%mzn-stat: circuitNumber2PropagationsThatFoundConflict=0
%%%mzn-stat: circuitNumber2TotalFixedEdgesAtConflict=0
%%%mzn-stat: circuitNumber2NumberOfConflicts=0
%%%mzn-stat: circuitNumber2PropagationsThatPruned=74
%%%mzn-stat: circuitNumber2PropagationsTotal=1267
%%%mzn-stat: AverageConflictSize=2.2596685082872927
%%%mzn-stat: NumUnitNogoodsLearned=0
%%%mzn-stat: AverageLearnedNogoodLength=2.3370165745856353
%%%mzn-stat: AverageBacktrackAmount=0
%%%mzn-stat: AverageLbd=2.25414364640884
%%%mzn-stat: 2AutonomousSearchNumBackupCalled=1327
%%%mzn-stat: 2AutonomousSearchNumPredicatesRemoved=0
%%%mzn-stat: 2AutonomousSearchNumCalls=1334
%%%mzn-stat: 2AutonomousSearchNumPredicatesAdded=327
%%%mzn-stat: 2AutonomousSearchAverageSizeOfHeap=0.876311844077961
%%%mzn-stat: 2AutonomousSearchNumAssignedPredicatesEncountered=1169
%%%mzn-stat-end
maxleg = 532;
succ = array1d(1..20,[2, 4, 1, 5, 6, 7, 8, 10, 19, 9, 3, 13, 15, 12, 16, 18, 11, 17, 20, 14]);
% time elapsed: 5.19 s
----------
%%%mzn-stat: initTime=0.094879752
%%%mzn-stat: objective=524
%%%mzn-stat: nodes=2938
%%%mzn-stat: restarts=0
%%%mzn-stat: peakDepth=254
%%%mzn-stat: solveTime=0.01203035
%%%mzn-stat: variables=498
%%%mzn-stat: propagators=349
%%%mzn-stat: failures=197
%%%mzn-stat: propagations=16120
%%%mzn-stat: nogoods=197
%%%mzn-stat: numAtomicConstraintsPropagated=0
%%%mzn-stat: allDifferentNumber1TotalHallSetSize=462
%%%mzn-stat: allDifferentNumber1NumberOfConflicts=197
%%%mzn-stat: allDifferentNumber1MaxHallSetSize=12
%%%mzn-stat: allDifferentNumber1PropagationsTotal=2215
%%%mzn-stat: allDifferentNumber1PropagationsThatFoundConflict=197
%%%mzn-stat: circuitNumber2PropagationsThatFoundConflict=0
%%%mzn-stat: circuitNumber2TotalFixedEdgesAtConflict=0
%%%mzn-stat: circuitNumber2NumberOfConflicts=0
%%%mzn-stat: circuitNumber2PropagationsThatPruned=75
%%%mzn-stat: circuitNumber2PropagationsTotal=1334
%%%mzn-stat: AverageConflictSize=2.6243654822335025
%%%mzn-stat: NumUnitNogoodsLearned=0
%%%mzn-stat: AverageLearnedNogoodLength=2.934010152284264
%%%mzn-stat: AverageBacktrackAmount=0
%%%mzn-stat: AverageLbd=2.4416243654822334
%%%mzn-stat: 2AutonomousSearchNumBackupCalled=1490
%%%mzn-stat: 2AutonomousSearchNumPredicatesRemoved=0
%%%mzn-stat: 2AutonomousSearchNumCalls=1498
%%%mzn-stat: 2AutonomousSearchNumPredicatesAdded=475
%%%mzn-stat: 2AutonomousSearchAverageSizeOfHeap=0.9813084112149533
%%%mzn-stat: 2AutonomousSearchNumAssignedPredicatesEncountered=1470
%%%mzn-stat-end
maxleg = 524;
succ = array1d(1..20,[2, 4, 1, 5, 6, 7, 8, 12, 19, 9, 3, 14, 10, 17, 13, 15, 20, 16, 11, 18]);
% time elapsed: 5.19 s
----------
%%%mzn-stat: initTime=0.094879752
%%%mzn-stat: objective=509
%%%mzn-stat: nodes=3232
%%%mzn-stat: restarts=0
%%%mzn-stat: peakDepth=254
%%%mzn-stat: solveTime=0.015875059
%%%mzn-stat: variables=498
%%%mzn-stat: propagators=349
%%%mzn-stat: failures=281
%%%mzn-stat: propagations=19327
%%%mzn-stat: nogoods=281
%%%mzn-stat: numAtomicConstraintsPropagated=0
%%%mzn-stat: allDifferentNumber1TotalHallSetSize=700
%%%mzn-stat: allDifferentNumber1NumberOfConflicts=258
%%%mzn-stat: allDifferentNumber1MaxHallSetSize=12
%%%mzn-stat: allDifferentNumber1PropagationsTotal=2517
%%%mzn-stat: allDifferentNumber1PropagationsThatFoundConflict=258
%%%mzn-stat: circuitNumber2PropagationsThatFoundConflict=14
%%%mzn-stat: circuitNumber2TotalFixedEdgesAtConflict=232
%%%mzn-stat: circuitNumber2NumberOfConflicts=14
%%%mzn-stat: circuitNumber2PropagationsThatPruned=108
%%%mzn-stat: circuitNumber2PropagationsTotal=1491
%%%mzn-stat: AverageConflictSize=4.476868327402135
%%%mzn-stat: NumUnitNogoodsLearned=0
%%%mzn-stat: AverageLearnedNogoodLength=7.120996441281139
%%%mzn-stat: AverageBacktrackAmount=0
%%%mzn-stat: AverageLbd=3.7793594306049823
%%%mzn-stat: 2AutonomousSearchNumBackupCalled=1651
%%%mzn-stat: 2AutonomousSearchNumPredicatesRemoved=0
%%%mzn-stat: 2AutonomousSearchNumCalls=1660
%%%mzn-stat: 2AutonomousSearchNumPredicatesAdded=737
%%%mzn-stat: 2AutonomousSearchAverageSizeOfHeap=1.1271084337349397
%%%mzn-stat: 2AutonomousSearchNumAssignedPredicatesEncountered=1871
%%%mzn-stat-end
maxleg = 509;
succ = array1d(1..20,[2, 4, 1, 5, 6, 7, 8, 18, 19, 9, 3, 13, 15, 12, 16, 10, 14, 20, 11, 17]);
% time elapsed: 5.19 s
----------
%%%mzn-stat: initTime=0.094879752
%%%mzn-stat: objective=504
%%%mzn-stat: nodes=3638
%%%mzn-stat: restarts=0
%%%mzn-stat: peakDepth=254
%%%mzn-stat: solveTime=0.022091829
%%%mzn-stat: variables=498
%%%mzn-stat: propagators=349
%%%mzn-stat: failures=374
%%%mzn-stat: propagations=24402
%%%mzn-stat: nogoods=374
%%%mzn-stat: numAtomicConstraintsPropagated=0
%%%mzn-stat: allDifferentNumber1TotalHallSetSize=1057
%%%mzn-stat: allDifferentNumber1NumberOfConflicts=325
%%%mzn-stat: allDifferentNumber1MaxHallSetSize=15
%%%mzn-stat: allDifferentNumber1PropagationsTotal=2988
%%%mzn-stat: allDifferentNumber1PropagationsThatFoundConflict=325
%%%mzn-stat: circuitNumber2PropagationsThatFoundConflict=32
%%%mzn-stat: circuitNumber2TotalFixedEdgesAtConflict=530
%%%mzn-stat: circuitNumber2NumberOfConflicts=32
%%%mzn-stat: circuitNumber2PropagationsThatPruned=134
%%%mzn-stat: circuitNumber2PropagationsTotal=1762
%%%mzn-stat: AverageConflictSize=6.815508021390374
%%%mzn-stat: NumUnitNogoodsLearned=0
%%%mzn-stat: AverageLearnedNogoodLength=10.5
%%%mzn-stat: AverageBacktrackAmount=0
%%%mzn-stat: AverageLbd=4.842245989304812
%%%mzn-stat: 2AutonomousSearchNumBackupCalled=1805
%%%mzn-stat: 2AutonomousSearchNumPredicatesRemoved=0
%%%mzn-stat: 2AutonomousSearchNumCalls=1815
%%%mzn-stat: 2AutonomousSearchNumPredicatesAdded=966
%%%mzn-stat: 2AutonomousSearchAverageSizeOfHeap=1.2644628099173554
%%%mzn-stat: 2AutonomousSearchNumAssignedPredicatesEncountered=2295
%%%mzn-stat-end
maxleg = 504;
succ = array1d(1..20,[2, 5, 1, 6, 4, 7, 8, 18, 19, 9, 3, 13, 15, 12, 16, 10, 14, 20, 11, 17]);
% time elapsed: 5.20 s
----------
%%%mzn-stat: initTime=0.094879752
%%%mzn-stat: objective=484
%%%mzn-stat: nodes=3839
%%%mzn-stat: restarts=0
%%%mzn-stat: peakDepth=254
%%%mzn-stat: solveTime=0.022908352
%%%mzn-stat: variables=498
%%%mzn-stat: propagators=349
%%%mzn-stat: failures=389
%%%mzn-stat: propagations=25688
%%%mzn-stat: nogoods=389
%%%mzn-stat: numAtomicConstraintsPropagated=0
%%%mzn-stat: allDifferentNumber1TotalHallSetSize=1098
%%%mzn-stat: allDifferentNumber1NumberOfConflicts=338
%%%mzn-stat: allDifferentNumber1MaxHallSetSize=15
%%%mzn-stat: allDifferentNumber1PropagationsTotal=3079
%%%mzn-stat: allDifferentNumber1PropagationsThatFoundConflict=338
%%%mzn-stat: circuitNumber2PropagationsThatFoundConflict=34
%%%mzn-stat: circuitNumber2TotalFixedEdgesAtConflict=558
%%%mzn-stat: circuitNumber2NumberOfConflicts=34
%%%mzn-stat: circuitNumber2PropagationsThatPruned=135
%%%mzn-stat: circuitNumber2PropagationsTotal=1818
%%%mzn-stat: AverageConflictSize=6.740359897172237
%%%mzn-stat: NumUnitNogoodsLearned=0
%%%mzn-stat: AverageLearnedNogoodLength=10.367609254498715
%%%mzn-stat: AverageBacktrackAmount=0
%%%mzn-stat: AverageLbd=4.796915167095116
%%%mzn-stat: 2AutonomousSearchNumBackupCalled=1944
%%%mzn-stat: 2AutonomousSearchNumPredicatesRemoved=0
%%%mzn-stat: 2AutonomousSearchNumCalls=1955
%%%mzn-stat: 2AutonomousSearchNumPredicatesAdded=1124
%%%mzn-stat: 2AutonomousSearchAverageSizeOfHeap=1.4005115089514066
%%%mzn-stat: 2AutonomousSearchNumAssignedPredicatesEncountered=2738
%%%mzn-stat-end
maxleg = 484;
succ = array1d(1..20,[2, 5, 1, 6, 4, 7, 9, 12, 10, 13, 3, 14, 15, 17, 16, 8, 18, 20, 11, 19]);
% time elapsed: 5.20 s
----------
%%%mzn-stat: initTime=0.094879752
%%%mzn-stat: objective=477
%%%mzn-stat: nodes=4048
%%%mzn-stat: restarts=0
%%%mzn-stat: peakDepth=254
%%%mzn-stat: solveTime=0.025093063
%%%mzn-stat: variables=498
%%%mzn-stat: propagators=349
%%%mzn-stat: failures=422
%%%mzn-stat: propagations=27933
%%%mzn-stat: nogoods=422
%%%mzn-stat: numAtomicConstraintsPropagated=0
%%%mzn-stat: allDifferentNumber1TotalHallSetSize=1133
%%%mzn-stat: allDifferentNumber1NumberOfConflicts=349
%%%mzn-stat: allDifferentNumber1MaxHallSetSize=15
%%%mzn-stat: allDifferentNumber1PropagationsTotal=3209
%%%mzn-stat: allDifferentNumber1PropagationsThatFoundConflict=349
%%%mzn-stat: circuitNumber2PropagationsThatFoundConflict=45
%%%mzn-stat: circuitNumber2TotalFixedEdgesAtConflict=737
%%%mzn-stat: circuitNumber2NumberOfConflicts=45
%%%mzn-stat: circuitNumber2PropagationsThatPruned=153
%%%mzn-stat: circuitNumber2PropagationsTotal=1907
%%%mzn-stat: AverageConflictSize=7.35781990521327
%%%mzn-stat: NumUnitNogoodsLearned=0
%%%mzn-stat: AverageLearnedNogoodLength=11.545023696682465
%%%mzn-stat: AverageBacktrackAmount=0
%%%mzn-stat: AverageLbd=5.085308056872038
%%%mzn-stat: 2AutonomousSearchNumBackupCalled=2082
%%%mzn-stat: 2AutonomousSearchNumPredicatesRemoved=0
%%%mzn-stat: 2AutonomousSearchNumCalls=2094
%%%mzn-stat: 2AutonomousSearchNumPredicatesAdded=1357
%%%mzn-stat: 2AutonomousSearchAverageSizeOfHeap=1.524355300859599
%%%mzn-stat: 2AutonomousSearchNumAssignedPredicatesEncountered=3192
%%%mzn-stat-end
maxleg = 477;
succ = array1d(1..20,[2, 5, 1, 6, 4, 8, 9, 18, 19, 7, 3, 15, 10, 12, 16, 13, 14, 20, 11, 17]);
% time elapsed: 5.20 s
----------
%%%mzn-stat: initTime=0.094879752
%%%mzn-stat: objective=476
%%%mzn-stat: nodes=4299
%%%mzn-stat: restarts=0
%%%mzn-stat: peakDepth=254
%%%mzn-stat: solveTime=0.026806917
%%%mzn-stat: variables=498
%%%mzn-stat: propagators=349
%%%mzn-stat: failures=452
%%%mzn-stat: propagations=30182
%%%mzn-stat: nogoods=452
%%%mzn-stat: numAtomicConstraintsPropagated=0
%%%mzn-stat: allDifferentNumber1TotalHallSetSize=1304
%%%mzn-stat: allDifferentNumber1NumberOfConflicts=379
%%%mzn-stat: allDifferentNumber1MaxHallSetSize=17
%%%mzn-stat: allDifferentNumber1PropagationsTotal=3441
%%%mzn-stat: allDifferentNumber1PropagationsThatFoundConflict=379
%%%mzn-stat: circuitNumber2PropagationsThatFoundConflict=45
%%%mzn-stat: circuitNumber2TotalFixedEdgesAtConflict=737
%%%mzn-stat: circuitNumber2NumberOfConflicts=45
%%%mzn-stat: circuitNumber2PropagationsThatPruned=162
%%%mzn-stat: circuitNumber2PropagationsTotal=2023
%%%mzn-stat: AverageConflictSize=7.519911504424779
%%%mzn-stat: NumUnitNogoodsLearned=0
%%%mzn-stat: AverageLearnedNogoodLength=11.491150442477876
%%%mzn-stat: AverageBacktrackAmount=0
%%%mzn-stat: AverageLbd=5.061946902654867
%%%mzn-stat: 2AutonomousSearchNumBackupCalled=2208
%%%mzn-stat: 2AutonomousSearchNumPredicatesRemoved=0
%%%mzn-stat: 2AutonomousSearchNumCalls=2221
%%%mzn-stat: 2AutonomousSearchNumPredicatesAdded=1493
%%%mzn-stat: 2AutonomousSearchAverageSizeOfHeap=1.65060783430887
%%%mzn-stat: 2AutonomousSearchNumAssignedPredicatesEncountered=3666
%%%mzn-stat-end
maxleg = 476;
succ = array1d(1..20,[3, 5, 11, 1, 4, 2, 9, 12, 6, 7, 19, 15, 10, 17, 16, 13, 18, 8, 20, 14]);
% time elapsed: 5.20 s
----------
%%%mzn-stat: initTime=0.094879752
%%%mzn-stat: objective=466
%%%mzn-stat: nodes=4465
%%%mzn-stat: restarts=0
%%%mzn-stat: peakDepth=254
%%%mzn-stat: solveTime=0.027555524
%%%mzn-stat: variables=498
%%%mzn-stat: propagators=349
%%%mzn-stat: failures=465
%%%mzn-stat: propagations=31321
%%%mzn-stat: nogoods=465
%%%mzn-stat: numAtomicConstraintsPropagated=0
%%%mzn-stat: allDifferentNumber1TotalHallSetSize=1362
%%%mzn-stat: allDifferentNumber1NumberOfConflicts=392
%%%mzn-stat: allDifferentNumber1MaxHallSetSize=17
%%%mzn-stat: allDifferentNumber1PropagationsTotal=3519
%%%mzn-stat: allDifferentNumber1PropagationsThatFoundConflict=392
%%%mzn-stat: circuitNumber2PropagationsThatFoundConflict=45
%%%mzn-stat: circuitNumber2TotalFixedEdgesAtConflict=737
%%%mzn-stat: circuitNumber2NumberOfConflicts=45
%%%mzn-stat: circuitNumber2PropagationsThatPruned=168
%%%mzn-stat: circuitNumber2PropagationsTotal=2063
%%%mzn-stat: AverageConflictSize=7.498924731182796
%%%mzn-stat: NumUnitNogoodsLearned=0
%%%mzn-stat: AverageLearnedNogoodLength=11.466666666666667
%%%mzn-stat: AverageBacktrackAmount=0
%%%mzn-stat: AverageLbd=5.053763440860215
%%%mzn-stat: 2AutonomousSearchNumBackupCalled=2331
%%%mzn-stat: 2AutonomousSearchNumPredicatesRemoved=0
%%%mzn-stat: 2AutonomousSearchNumCalls=2345
%%%mzn-stat: 2AutonomousSearchNumPredicatesAdded=1584
%%%mzn-stat: 2AutonomousSearchAverageSizeOfHeap=1.7658848614072495
%%%mzn-stat: 2AutonomousSearchNumAssignedPredicatesEncountered=4141
%%%mzn-stat-end
maxleg = 466;
succ = array1d(1..20,[3, 5, 11, 1, 4, 2, 9, 13, 6, 7, 19, 15, 10, 12, 16, 8, 14, 17, 20, 18]);
% time elapsed: 5.20 s
----------
%%%mzn-stat: initTime=0.094879752
%%%mzn-stat: objective=437
%%%mzn-stat: nodes=4631
%%%mzn-stat: restarts=0
%%%mzn-stat: peakDepth=254
%%%mzn-stat: solveTime=0.029473649
%%%mzn-stat: variables=498
%%%mzn-stat: propagators=349
%%%mzn-stat: failures=496
%%%mzn-stat: propagations=32988
%%%mzn-stat: nogoods=496
%%%mzn-stat: numAtomicConstraintsPropagated=0
%%%mzn-stat: allDifferentNumber1TotalHallSetSize=1535
%%%mzn-stat: allDifferentNumber1NumberOfConflicts=418
%%%mzn-stat: allDifferentNumber1MaxHallSetSize=17
%%%mzn-stat: allDifferentNumber1PropagationsTotal=3636
%%%mzn-stat: allDifferentNumber1PropagationsThatFoundConflict=418
%%%mzn-stat: circuitNumber2PropagationsThatFoundConflict=48
%%%mzn-stat: circuitNumber2TotalFixedEdgesAtConflict=775
%%%mzn-stat: circuitNumber2NumberOfConflicts=48
%%%mzn-stat: circuitNumber2PropagationsThatPruned=179
%%%mzn-stat: circuitNumber2PropagationsTotal=2112
%%%mzn-stat: AverageConflictSize=7.76008064516129
%%%mzn-stat: NumUnitNogoodsLearned=0
%%%mzn-stat: AverageLearnedNogoodLength=11.858870967741936
%%%mzn-stat: AverageBacktrackAmount=0
%%%mzn-stat: AverageLbd=5.046370967741935
%%%mzn-stat: 2AutonomousSearchNumBackupCalled=2443
%%%mzn-stat: 2AutonomousSearchNumPredicatesRemoved=0
%%%mzn-stat: 2AutonomousSearchNumCalls=2458
%%%mzn-stat: 2AutonomousSearchNumPredicatesAdded=1808
%%%mzn-stat: 2AutonomousSearchAverageSizeOfHeap=1.8958502847843774
%%%mzn-stat: 2AutonomousSearchNumAssignedPredicatesEncountered=4660
%%%mzn-stat-end
maxleg = 437;
succ = array1d(1..20,[3, 5, 11, 1, 4, 10, 9, 6, 2, 7, 19, 13, 15, 12, 16, 8, 14, 17, 20, 18]);
% time elapsed: 5.21 s
----------
%%%mzn-stat: initTime=0.094879752
%%%mzn-stat: objective=435
%%%mzn-stat: nodes=4761
%%%mzn-stat: restarts=0
%%%mzn-stat: peakDepth=254
%%%mzn-stat: solveTime=0.029837694
%%%mzn-stat: variables=498
%%%mzn-stat: propagators=349
%%%mzn-stat: failures=498
%%%mzn-stat: propagations=33702
%%%mzn-stat: nogoods=498
%%%mzn-stat: numAtomicConstraintsPropagated=0
%%%mzn-stat: allDifferentNumber1TotalHallSetSize=1542
%%%mzn-stat: allDifferentNumber1NumberOfConflicts=420
%%%mzn-stat: allDifferentNumber1MaxHallSetSize=17
%%%mzn-stat: allDifferentNumber1PropagationsTotal=3668
%%%mzn-stat: allDifferentNumber1PropagationsThatFoundConflict=420
%%%mzn-stat: circuitNumber2PropagationsThatFoundConflict=48
%%%mzn-stat: circuitNumber2TotalFixedEdgesAtConflict=775
%%%mzn-stat: circuitNumber2NumberOfConflicts=48
%%%mzn-stat: circuitNumber2PropagationsThatPruned=182
%%%mzn-stat: circuitNumber2PropagationsTotal=2130
%%%mzn-stat: AverageConflictSize=7.753012048192771
%%%mzn-stat: NumUnitNogoodsLearned=0
%%%mzn-stat: AverageLearnedNogoodLength=11.84136546184739
%%%mzn-stat: AverageBacktrackAmount=0
%%%mzn-stat: AverageLbd=5.042168674698795
%%%mzn-stat: 2AutonomousSearchNumBackupCalled=2556
%%%mzn-stat: 2AutonomousSearchNumPredicatesRemoved=0
%%%mzn-stat: 2AutonomousSearchNumCalls=2572
%%%mzn-stat: 2AutonomousSearchNumPredicatesAdded=1833
%%%mzn-stat: 2AutonomousSearchAverageSizeOfHeap=2.0136080870917574
%%%mzn-stat: 2AutonomousSearchNumAssignedPredicatesEncountered=5179
%%%mzn-stat-end
maxleg = 435;
succ = array1d(1..20,[3, 5, 11, 1, 4, 10, 9, 6, 2, 7, 19, 13, 15, 17, 16, 8, 12, 14, 20, 18]);
% time elapsed: 5.21 s
----------
%%%mzn-stat: initTime=0.094879752
%%%mzn-stat: objective=428
%%%mzn-stat: nodes=5449
%%%mzn-stat: restarts=0
%%%mzn-stat: peakDepth=254
%%%mzn-stat: solveTime=0.0540764
%%%mzn-stat: variables=498
%%%mzn-stat: propagators=349
%%%mzn-stat: failures=936
%%%mzn-stat: propagations=51491
%%%mzn-stat: nogoods=936
%%%mzn-stat: numAtomicConstraintsPropagated=0
%%%mzn-stat: allDifferentNumber1TotalHallSetSize=4448
%%%mzn-stat: allDifferentNumber1NumberOfConflicts=712
%%%mzn-stat: allDifferentNumber1MaxHallSetSize=17
%%%mzn-stat: allDifferentNumber1PropagationsTotal=5013
%%%mzn-stat: allDifferentNumber1PropagationsThatFoundConflict=712
%%%mzn-stat: circuitNumber2PropagationsThatFoundConflict=133
%%%mzn-stat: circuitNumber2TotalFixedEdgesAtConflict=2044
%%%mzn-stat: circuitNumber2NumberOfConflicts=133
%%%mzn-stat: circuitNumber2PropagationsThatPruned=323
%%%mzn-stat: circuitNumber2PropagationsTotal=2771
%%%mzn-stat: AverageConflictSize=12.270299145299145
%%%mzn-stat: NumUnitNogoodsLearned=0
%%%mzn-stat: AverageLearnedNogoodLength=19.162393162393162
%%%mzn-stat: AverageBacktrackAmount=0
%%%mzn-stat: AverageLbd=5.514957264957265
%%%mzn-stat: 2AutonomousSearchNumBackupCalled=2662
%%%mzn-stat: 2AutonomousSearchNumPredicatesRemoved=0
%%%mzn-stat: 2AutonomousSearchNumCalls=2679
%%%mzn-stat: 2AutonomousSearchNumPredicatesAdded=2375
%%%mzn-stat: 2AutonomousSearchAverageSizeOfHeap=2.210526315789474
%%%mzn-stat: 2AutonomousSearchNumAssignedPredicatesEncountered=5922
%%%mzn-stat-end
maxleg = 428;
succ = array1d(1..20,[3, 5, 17, 12, 9, 10, 2, 6, 19, 7, 1, 13, 15, 4, 16, 8, 18, 20, 11, 14]);
% time elapsed: 5.23 s
----------
==========
% time elapsed: 5.24 s
%%%mzn-stat: initTime=0.094879752
%%%mzn-stat: objective=428
%%%mzn-stat: nodes=5602
%%%mzn-stat: restarts=0
%%%mzn-stat: peakDepth=254
%%%mzn-stat: solveTime=0.06111327
%%%mzn-stat: variables=498
%%%mzn-stat: propagators=349
%%%mzn-stat: failures=1030
%%%mzn-stat: propagations=55936
%%%mzn-stat: nogoods=1030
%%%mzn-stat: numAtomicConstraintsPropagated=0
%%%mzn-stat: allDifferentNumber1TotalHallSetSize=5412
%%%mzn-stat: allDifferentNumber1NumberOfConflicts=801
%%%mzn-stat: allDifferentNumber1MaxHallSetSize=18
%%%mzn-stat: allDifferentNumber1PropagationsTotal=5349
%%%mzn-stat: allDifferentNumber1PropagationsThatFoundConflict=801
%%%mzn-stat: circuitNumber2PropagationsThatFoundConflict=137
%%%mzn-stat: circuitNumber2TotalFixedEdgesAtConflict=2080
%%%mzn-stat: circuitNumber2NumberOfConflicts=137
%%%mzn-stat: circuitNumber2PropagationsThatPruned=354
%%%mzn-stat: circuitNumber2PropagationsTotal=2916
%%%mzn-stat: AverageConflictSize=13.675728155339806
%%%mzn-stat: NumUnitNogoodsLearned=1
%%%mzn-stat: AverageLearnedNogoodLength=20.776699029126213
%%%mzn-stat: AverageBacktrackAmount=0
%%%mzn-stat: AverageLbd=5.446601941747573
%%%mzn-stat: 2AutonomousSearchNumBackupCalled=2662
%%%mzn-stat: 2AutonomousSearchNumPredicatesRemoved=0
%%%mzn-stat: 2AutonomousSearchNumCalls=2679
%%%mzn-stat: 2AutonomousSearchNumPredicatesAdded=3002
%%%mzn-stat: 2AutonomousSearchAverageSizeOfHeap=2.210526315789474
%%%mzn-stat: 2AutonomousSearchNumAssignedPredicatesEncountered=5922
%%%mzn-stat-end
